Maximize
  - 4.6888233140204 edge_0_1_0_0 - 4.7296276363378 edge_0_3_0_0
   - 4.610991556573801 edge_0_4_0_0 - 2.6259071878116 edge_0_6_0_0
   - 1.2442898908946 edge_0_10_0_0 - 2.9417385463849 edge_0_15_0_0
   - 5.686650535195199 edge_0_17_0_0 - 5.3607946297116 edge_0_22_0_0
   - 0.2829290706643396 edge_1_3_0_0 - 0.5207647904366727 edge_1_4_0_0
   - 0.2479415908047461 edge_1_10_0_0 - 0.5084356636121798 edge_3_1_0_0
   + 3.80786826693798 edge_3_4_0_0 + 0.5162972607849325 edge_3_6_0_0
   + 0.5125676607056556 edge_3_10_0_0 + 0.2120659365841761 edge_3_12_0_0
   - 0.4379731133581112 edge_3_13_0_0 - 0.0332916313760883 edge_3_15_0_0
   - 1.711887859243008 edge_3_17_0_0 - 0.1333727923819415 edge_3_21_0_0
   - 0.7811093233379801 edge_3_22_0_0 - 0.1296026556869744 edge_4_1_0_0
   + 1.626951058871449 edge_4_3_0_0 + 0.0942894176764366 edge_4_6_0_0
   + 0.0451401946714806 edge_4_10_0_0 - 1.405667992977893 edge_4_12_0_0
   - 0.7330521622565322 edge_4_15_0_0 - 0.6471585715376801 edge_6_1_0_0
   - 0.5316732960084251 edge_6_3_0_0 - 0.2240392153867761 edge_6_4_0_0
   + 0.4547431112013486 edge_6_10_0_0 - 0.117231053664145 edge_6_12_0_0
   - 0.1059586441506007 edge_6_13_0_0 - 0.2397972098514673 edge_6_15_0_0
   - 0.5593040288865976 edge_6_22_0_0 + 0.4195198686247431 edge_10_1_0_0
   + 0.9693119231215942 edge_10_3_0_0 + 0.8621620578022166 edge_10_4_0_0
   + 0.9916505256684132 edge_10_6_0_0 + 0.8198794605336323 edge_10_10_0_0
   + 0.6197556712679908 edge_10_11_0_0 + 1.397400937288788 edge_10_12_0_0
   + 0.4948849583142265 edge_10_13_0_0 - 0.0178627628657544 edge_10_14_0_0
   + 0.4207289973790359 edge_10_15_0_0 + 0.3293185646270161 edge_10_17_0_0
   - 0.034522373409624 edge_10_18_0_0 + 0.00920296371609539 edge_10_20_0_0
   + 0.0981492547985078 edge_10_21_0_0 + 0.4497830010769149 edge_10_22_0_0
   + 0.2516158926643305 edge_11_10_0_0 + 0.0418320926812929 edge_11_11_0_0
   - 0.1469640445201572 edge_11_12_0_0 - 0.1356314435452604 edge_11_13_0_0
   - 0.5129911730995875 edge_11_14_0_0 - 0.4853353806355116 edge_11_18_0_0
   - 1.288552912195993 edge_12_1_0_0 - 0.9576703490505791 edge_12_3_0_0
   - 0.0282167045476169 edge_12_6_0_0 + 0.3759047429960741 edge_12_10_0_0
   + 2.204132817619903 edge_12_11_0_0 + 0.3197063165256289 edge_12_13_0_0
   - 0.0823243217688397 edge_12_14_0_0 + 0.3027514405173211 edge_12_15_0_0
   - 0.9208640793206677 edge_12_17_0_0 - 0.5480588756516964 edge_12_20_0_0
   - 0.2123585774184762 edge_12_21_0_0 - 0.1671687293243914 edge_12_22_0_0
   - 0.7916121694722655 edge_13_12_0_0 + 0.4592605577265148 edge_14_13_0_0
   + 0.9145933371163477 edge_14_15_0_0 - 0.4657577987424613 edge_14_17_0_0
   - 0.4415669700928936 edge_14_18_0_0 + 0.1218046576449216 edge_14_20_0_0
   + 0.1624039085599666 edge_14_21_0_0 + 0.3496843780476965 edge_14_22_0_0
   - 0.5048705516302276 edge_15_1_0_0 - 0.5517904031337045 edge_15_3_0_0
   - 0.6997625477301531 edge_15_4_0_0 - 0.4212948321823343 edge_15_6_0_0
   - 0.1736555377506912 edge_15_10_0_0 + 0.0609481862984667 edge_15_11_0_0
   - 0.4706118101025473 edge_15_12_0_0 + 0.7447204555318725 edge_15_13_0_0
   + 0.9469475226236687 edge_15_14_0_0 + 0.6926750477424192 edge_15_15_0_0
   + 0.1076301839104422 edge_15_16_0_0 + 1.736976610700929 edge_15_17_0_0
   - 0.0518139178667091 edge_15_18_0_0 + 0.00824358874292532 edge_15_20_0_0
   + 0.0207371719579536 edge_15_21_0_0 + 0.6057587663352998 edge_15_22_0_0
   - 0.0426694553029185 edge_16_15_0_0 - 0.4643981957426787 edge_16_18_0_0
   - 0.8645698226139987 edge_17_1_0_0 - 0.8032539836040306 edge_17_3_0_0
   - 1.171188433784219 edge_17_4_0_0 + 0.4405216262971678 edge_17_6_0_0
   - 0.2224893081204564 edge_17_10_0_0 - 0.304102922807755 edge_17_11_0_0
   - 0.8214877586322161 edge_17_12_0_0 + 2.188463929094211 edge_17_13_0_0
   + 0.9545388197130118 edge_17_14_0_0 + 0.9333688283302107 edge_17_15_0_0
   + 3.843748365139854 edge_17_16_0_0 + 0.0650122241644925 edge_17_18_0_0
   + 0.2828085014721401 edge_17_20_0_0 + 0.2035940670117102 edge_17_21_0_0
   + 1.408149029756238 edge_17_22_0_0 + 0.0686014278651203 edge_18_20_0_0
   - 0.1169128090143011 edge_18_21_0_0 + 0.1900101706356019 edge_20_15_0_0
   - 0.1507512171666588 edge_20_17_0_0 + 0.2080578229721559 edge_20_18_0_0
   + 0.1385151974357813 edge_20_21_0_0 + 0.3997970634372647 edge_20_22_0_0
   - 0.0438686186462062 edge_21_14_0_0
   - 2.0005277841482472e-04 edge_21_15_0_0
   - 0.3105186840279001 edge_21_17_0_0 + 0.6555877487526491 edge_21_18_0_0
   + 0.9093069834120008 edge_21_20_0_0 + 0.0473680551638062 edge_21_21_0_0
   - 0.8246692013803313 edge_22_1_0_0 - 1.660314813173054 edge_22_3_0_0
   - 1.867300334812226 edge_22_4_0_0 - 0.6069680517668297 edge_22_6_0_0
   - 0.3491904147264238 edge_22_10_0_0 - 0.1853567253020484 edge_22_11_0_0
   - 1.934023777862386 edge_22_12_0_0 + 0.0614383347749743 edge_22_13_0_0
   + 0.3558275538697903 edge_22_14_0_0 + 0.1874756477272035 edge_22_15_0_0
   - 0.0351434074834699 edge_22_17_0_0 + 0.1689329095210406 edge_22_18_0_0
   + 0.0289542669018385 edge_22_20_0_0 + 1.550331220423344 edge_22_21_0_0
Subject To
 one_parent_1: edge_0_1_0_0 + edge_3_1_0_0 + edge_4_1_0_0 + edge_6_1_0_0
   + edge_10_1_0_0 + edge_12_1_0_0 + edge_15_1_0_0 + edge_17_1_0_0
   + edge_22_1_0_0 = 1
 consume_one_flow_unit_1: flow_0_1_0_0 - flow_1_3_0_0 - flow_1_4_0_0
   - flow_1_10_0_0 + flow_3_1_0_0 + flow_4_1_0_0 + flow_6_1_0_0
   + flow_10_1_0_0 + flow_12_1_0_0 + flow_15_1_0_0 + flow_17_1_0_0
   + flow_22_1_0_0 = 1
 one_parent_2: = 1
 consume_one_flow_unit_2: = 1
 one_parent_3: edge_0_3_0_0 + edge_1_3_0_0 + edge_4_3_0_0 + edge_6_3_0_0
   + edge_10_3_0_0 + edge_12_3_0_0 + edge_15_3_0_0 + edge_17_3_0_0
   + edge_22_3_0_0 = 1
 consume_one_flow_unit_3: flow_0_3_0_0 + flow_1_3_0_0 - flow_3_1_0_0
   - flow_3_4_0_0 - flow_3_6_0_0 - flow_3_10_0_0 - flow_3_12_0_0
   - flow_3_13_0_0 - flow_3_15_0_0 - flow_3_17_0_0 - flow_3_21_0_0
   - flow_3_22_0_0 + flow_4_3_0_0 + flow_6_3_0_0 + flow_10_3_0_0
   + flow_12_3_0_0 + flow_15_3_0_0 + flow_17_3_0_0 + flow_22_3_0_0 = 1
 one_parent_4: edge_0_4_0_0 + edge_1_4_0_0 + edge_3_4_0_0 + edge_6_4_0_0
   + edge_10_4_0_0 + edge_15_4_0_0 + edge_17_4_0_0 + edge_22_4_0_0 = 1
 consume_one_flow_unit_4: flow_0_4_0_0 + flow_1_4_0_0 + flow_3_4_0_0
   - flow_4_1_0_0 - flow_4_3_0_0 - flow_4_6_0_0 - flow_4_10_0_0
   - flow_4_12_0_0 - flow_4_15_0_0 + flow_6_4_0_0 + flow_10_4_0_0
   + flow_15_4_0_0 + flow_17_4_0_0 + flow_22_4_0_0 = 1
 one_parent_5: = 1
 consume_one_flow_unit_5: = 1
 one_parent_6: edge_0_6_0_0 + edge_3_6_0_0 + edge_4_6_0_0 + edge_10_6_0_0
   + edge_12_6_0_0 + edge_15_6_0_0 + edge_17_6_0_0 + edge_22_6_0_0 = 1
 consume_one_flow_unit_6: flow_0_6_0_0 + flow_3_6_0_0 + flow_4_6_0_0
   - flow_6_1_0_0 - flow_6_3_0_0 - flow_6_4_0_0 - flow_6_10_0_0
   - flow_6_12_0_0 - flow_6_13_0_0 - flow_6_15_0_0 - flow_6_22_0_0
   + flow_10_6_0_0 + flow_12_6_0_0 + flow_15_6_0_0 + flow_17_6_0_0
   + flow_22_6_0_0 = 1
 one_parent_7: = 1
 consume_one_flow_unit_7: = 1
 one_parent_8: = 1
 consume_one_flow_unit_8: = 1
 one_parent_9: = 1
 consume_one_flow_unit_9: = 1
 one_parent_10: edge_0_10_0_0 + edge_1_10_0_0 + edge_3_10_0_0
   + edge_4_10_0_0 + edge_6_10_0_0 + edge_10_10_0_0 + edge_11_10_0_0
   + edge_12_10_0_0 + edge_15_10_0_0 + edge_17_10_0_0 + edge_22_10_0_0 = 1
 consume_one_flow_unit_10: flow_0_10_0_0 + flow_1_10_0_0 + flow_3_10_0_0
   + flow_4_10_0_0 + flow_6_10_0_0 - flow_10_1_0_0 - flow_10_3_0_0
   - flow_10_4_0_0 - flow_10_6_0_0 - flow_10_11_0_0 - flow_10_12_0_0
   - flow_10_13_0_0 - flow_10_14_0_0 - flow_10_15_0_0 - flow_10_17_0_0
   - flow_10_18_0_0 - flow_10_20_0_0 - flow_10_21_0_0 - flow_10_22_0_0
   + flow_11_10_0_0 + flow_12_10_0_0 + flow_15_10_0_0 + flow_17_10_0_0
   + flow_22_10_0_0 = 1
 one_parent_11: edge_10_11_0_0 + edge_11_11_0_0 + edge_12_11_0_0
   + edge_15_11_0_0 + edge_17_11_0_0 + edge_22_11_0_0 = 1
 consume_one_flow_unit_11: flow_10_11_0_0 - flow_11_10_0_0 - flow_11_12_0_0
   - flow_11_13_0_0 - flow_11_14_0_0 - flow_11_18_0_0 + flow_12_11_0_0
   + flow_15_11_0_0 + flow_17_11_0_0 + flow_22_11_0_0 = 1
 one_parent_12: edge_3_12_0_0 + edge_4_12_0_0 + edge_6_12_0_0
   + edge_10_12_0_0 + edge_11_12_0_0 + edge_13_12_0_0 + edge_15_12_0_0
   + edge_17_12_0_0 + edge_22_12_0_0 = 1
 consume_one_flow_unit_12: flow_3_12_0_0 + flow_4_12_0_0 + flow_6_12_0_0
   + flow_10_12_0_0 + flow_11_12_0_0 - flow_12_1_0_0 - flow_12_3_0_0
   - flow_12_6_0_0 - flow_12_10_0_0 - flow_12_11_0_0 - flow_12_13_0_0
   - flow_12_14_0_0 - flow_12_15_0_0 - flow_12_17_0_0 - flow_12_20_0_0
   - flow_12_21_0_0 - flow_12_22_0_0 + flow_13_12_0_0 + flow_15_12_0_0
   + flow_17_12_0_0 + flow_22_12_0_0 = 1
 one_parent_13: edge_3_13_0_0 + edge_6_13_0_0 + edge_10_13_0_0
   + edge_11_13_0_0 + edge_12_13_0_0 + edge_14_13_0_0 + edge_15_13_0_0
   + edge_17_13_0_0 + edge_22_13_0_0 = 1
 consume_one_flow_unit_13: flow_3_13_0_0 + flow_6_13_0_0 + flow_10_13_0_0
   + flow_11_13_0_0 + flow_12_13_0_0 - flow_13_12_0_0 + flow_14_13_0_0
   + flow_15_13_0_0 + flow_17_13_0_0 + flow_22_13_0_0 = 1
 one_parent_14: edge_10_14_0_0 + edge_11_14_0_0 + edge_12_14_0_0
   + edge_15_14_0_0 + edge_17_14_0_0 + edge_21_14_0_0 + edge_22_14_0_0 = 1
 consume_one_flow_unit_14: flow_10_14_0_0 + flow_11_14_0_0 + flow_12_14_0_0
   - flow_14_13_0_0 - flow_14_15_0_0 - flow_14_17_0_0 - flow_14_18_0_0
   - flow_14_20_0_0 - flow_14_21_0_0 - flow_14_22_0_0 + flow_15_14_0_0
   + flow_17_14_0_0 + flow_21_14_0_0 + flow_22_14_0_0 = 1
 one_parent_15: edge_0_15_0_0 + edge_3_15_0_0 + edge_4_15_0_0
   + edge_6_15_0_0 + edge_10_15_0_0 + edge_12_15_0_0 + edge_14_15_0_0
   + edge_15_15_0_0 + edge_16_15_0_0 + edge_17_15_0_0 + edge_20_15_0_0
   + edge_21_15_0_0 + edge_22_15_0_0 = 1
 consume_one_flow_unit_15: flow_0_15_0_0 + flow_3_15_0_0 + flow_4_15_0_0
   + flow_6_15_0_0 + flow_10_15_0_0 + flow_12_15_0_0 + flow_14_15_0_0
   - flow_15_1_0_0 - flow_15_3_0_0 - flow_15_4_0_0 - flow_15_6_0_0
   - flow_15_10_0_0 - flow_15_11_0_0 - flow_15_12_0_0 - flow_15_13_0_0
   - flow_15_14_0_0 - flow_15_16_0_0 - flow_15_17_0_0 - flow_15_18_0_0
   - flow_15_20_0_0 - flow_15_21_0_0 - flow_15_22_0_0 + flow_16_15_0_0
   + flow_17_15_0_0 + flow_20_15_0_0 + flow_21_15_0_0 + flow_22_15_0_0 = 1
 one_parent_16: edge_15_16_0_0 + edge_17_16_0_0 = 1
 consume_one_flow_unit_16: flow_15_16_0_0 - flow_16_15_0_0 - flow_16_18_0_0
   + flow_17_16_0_0 = 1
 one_parent_17: edge_0_17_0_0 + edge_3_17_0_0 + edge_10_17_0_0
   + edge_12_17_0_0 + edge_14_17_0_0 + edge_15_17_0_0 + edge_20_17_0_0
   + edge_21_17_0_0 + edge_22_17_0_0 = 1
 consume_one_flow_unit_17: flow_0_17_0_0 + flow_3_17_0_0 + flow_10_17_0_0
   + flow_12_17_0_0 + flow_14_17_0_0 + flow_15_17_0_0 - flow_17_1_0_0
   - flow_17_3_0_0 - flow_17_4_0_0 - flow_17_6_0_0 - flow_17_10_0_0
   - flow_17_11_0_0 - flow_17_12_0_0 - flow_17_13_0_0 - flow_17_14_0_0
   - flow_17_15_0_0 - flow_17_16_0_0 - flow_17_18_0_0 - flow_17_20_0_0
   - flow_17_21_0_0 - flow_17_22_0_0 + flow_20_17_0_0 + flow_21_17_0_0
   + flow_22_17_0_0 = 1
 one_parent_18: edge_10_18_0_0 + edge_11_18_0_0 + edge_14_18_0_0
   + edge_15_18_0_0 + edge_16_18_0_0 + edge_17_18_0_0 + edge_20_18_0_0
   + edge_21_18_0_0 + edge_22_18_0_0 = 1
 consume_one_flow_unit_18: flow_10_18_0_0 + flow_11_18_0_0 + flow_14_18_0_0
   + flow_15_18_0_0 + flow_16_18_0_0 + flow_17_18_0_0 - flow_18_20_0_0
   - flow_18_21_0_0 + flow_20_18_0_0 + flow_21_18_0_0 + flow_22_18_0_0 = 1
 one_parent_19: = 1
 consume_one_flow_unit_19: = 1
 one_parent_20: edge_10_20_0_0 + edge_12_20_0_0 + edge_14_20_0_0
   + edge_15_20_0_0 + edge_17_20_0_0 + edge_18_20_0_0 + edge_21_20_0_0
   + edge_22_20_0_0 = 1
 consume_one_flow_unit_20: flow_10_20_0_0 + flow_12_20_0_0 + flow_14_20_0_0
   + flow_15_20_0_0 + flow_17_20_0_0 + flow_18_20_0_0 - flow_20_15_0_0
   - flow_20_17_0_0 - flow_20_18_0_0 - flow_20_21_0_0 - flow_20_22_0_0
   + flow_21_20_0_0 + flow_22_20_0_0 = 1
 one_parent_21: edge_3_21_0_0 + edge_10_21_0_0 + edge_12_21_0_0
   + edge_14_21_0_0 + edge_15_21_0_0 + edge_17_21_0_0 + edge_18_21_0_0
   + edge_20_21_0_0 + edge_21_21_0_0 + edge_22_21_0_0 = 1
 consume_one_flow_unit_21: flow_3_21_0_0 + flow_10_21_0_0 + flow_12_21_0_0
   + flow_14_21_0_0 + flow_15_21_0_0 + flow_17_21_0_0 + flow_18_21_0_0
   + flow_20_21_0_0 - flow_21_14_0_0 - flow_21_15_0_0 - flow_21_17_0_0
   - flow_21_18_0_0 - flow_21_20_0_0 + flow_22_21_0_0 = 1
 one_parent_22: edge_0_22_0_0 + edge_3_22_0_0 + edge_6_22_0_0
   + edge_10_22_0_0 + edge_12_22_0_0 + edge_14_22_0_0 + edge_15_22_0_0
   + edge_17_22_0_0 + edge_20_22_0_0 = 1
 consume_one_flow_unit_22: flow_0_22_0_0 + flow_3_22_0_0 + flow_6_22_0_0
   + flow_10_22_0_0 + flow_12_22_0_0 + flow_14_22_0_0 + flow_15_22_0_0
   + flow_17_22_0_0 + flow_20_22_0_0 - flow_22_1_0_0 - flow_22_3_0_0
   - flow_22_4_0_0 - flow_22_6_0_0 - flow_22_10_0_0 - flow_22_11_0_0
   - flow_22_12_0_0 - flow_22_13_0_0 - flow_22_14_0_0 - flow_22_15_0_0
   - flow_22_17_0_0 - flow_22_18_0_0 - flow_22_20_0_0 - flow_22_21_0_0 = 1
 one_parent_23: = 1
 consume_one_flow_unit_23: = 1
 root_flow: flow_0_1_0_0 + flow_0_3_0_0 + flow_0_4_0_0 + flow_0_6_0_0
   + flow_0_10_0_0 + flow_0_15_0_0 + flow_0_17_0_0 + flow_0_22_0_0 = 23
 inactive_no_flow_0_1_0_0: flow_0_1_0_0 - 1000 edge_0_1_0_0 <= 0
 inactive_no_flow_0_3_0_0: flow_0_3_0_0 - 1000 edge_0_3_0_0 <= 0
 inactive_no_flow_0_4_0_0: flow_0_4_0_0 - 1000 edge_0_4_0_0 <= 0
 inactive_no_flow_0_6_0_0: flow_0_6_0_0 - 1000 edge_0_6_0_0 <= 0
 inactive_no_flow_0_10_0_0: flow_0_10_0_0 - 1000 edge_0_10_0_0 <= 0
 inactive_no_flow_0_15_0_0: flow_0_15_0_0 - 1000 edge_0_15_0_0 <= 0
 inactive_no_flow_0_17_0_0: flow_0_17_0_0 - 1000 edge_0_17_0_0 <= 0
 inactive_no_flow_0_22_0_0: flow_0_22_0_0 - 1000 edge_0_22_0_0 <= 0
 inactive_no_flow_1_3_0_0: flow_1_3_0_0 - 1000 edge_1_3_0_0 <= 0
 inactive_no_flow_1_4_0_0: flow_1_4_0_0 - 1000 edge_1_4_0_0 <= 0
 inactive_no_flow_1_10_0_0: flow_1_10_0_0 - 1000 edge_1_10_0_0 <= 0
 inactive_no_flow_3_1_0_0: flow_3_1_0_0 - 1000 edge_3_1_0_0 <= 0
 inactive_no_flow_3_4_0_0: flow_3_4_0_0 - 1000 edge_3_4_0_0 <= 0
 inactive_no_flow_3_6_0_0: flow_3_6_0_0 - 1000 edge_3_6_0_0 <= 0
 inactive_no_flow_3_10_0_0: flow_3_10_0_0 - 1000 edge_3_10_0_0 <= 0
 inactive_no_flow_3_12_0_0: flow_3_12_0_0 - 1000 edge_3_12_0_0 <= 0
 inactive_no_flow_3_13_0_0: flow_3_13_0_0 - 1000 edge_3_13_0_0 <= 0
 inactive_no_flow_3_15_0_0: flow_3_15_0_0 - 1000 edge_3_15_0_0 <= 0
 inactive_no_flow_3_17_0_0: flow_3_17_0_0 - 1000 edge_3_17_0_0 <= 0
 inactive_no_flow_3_21_0_0: flow_3_21_0_0 - 1000 edge_3_21_0_0 <= 0
 inactive_no_flow_3_22_0_0: flow_3_22_0_0 - 1000 edge_3_22_0_0 <= 0
 inactive_no_flow_4_1_0_0: flow_4_1_0_0 - 1000 edge_4_1_0_0 <= 0
 inactive_no_flow_4_3_0_0: flow_4_3_0_0 - 1000 edge_4_3_0_0 <= 0
 inactive_no_flow_4_6_0_0: flow_4_6_0_0 - 1000 edge_4_6_0_0 <= 0
 inactive_no_flow_4_10_0_0: flow_4_10_0_0 - 1000 edge_4_10_0_0 <= 0
 inactive_no_flow_4_12_0_0: flow_4_12_0_0 - 1000 edge_4_12_0_0 <= 0
 inactive_no_flow_4_15_0_0: flow_4_15_0_0 - 1000 edge_4_15_0_0 <= 0
 inactive_no_flow_6_1_0_0: flow_6_1_0_0 - 1000 edge_6_1_0_0 <= 0
 inactive_no_flow_6_3_0_0: flow_6_3_0_0 - 1000 edge_6_3_0_0 <= 0
 inactive_no_flow_6_4_0_0: flow_6_4_0_0 - 1000 edge_6_4_0_0 <= 0
 inactive_no_flow_6_10_0_0: flow_6_10_0_0 - 1000 edge_6_10_0_0 <= 0
 inactive_no_flow_6_12_0_0: flow_6_12_0_0 - 1000 edge_6_12_0_0 <= 0
 inactive_no_flow_6_13_0_0: flow_6_13_0_0 - 1000 edge_6_13_0_0 <= 0
 inactive_no_flow_6_15_0_0: flow_6_15_0_0 - 1000 edge_6_15_0_0 <= 0
 inactive_no_flow_6_22_0_0: flow_6_22_0_0 - 1000 edge_6_22_0_0 <= 0
 inactive_no_flow_10_1_0_0: flow_10_1_0_0 - 1000 edge_10_1_0_0 <= 0
 inactive_no_flow_10_3_0_0: flow_10_3_0_0 - 1000 edge_10_3_0_0 <= 0
 inactive_no_flow_10_4_0_0: flow_10_4_0_0 - 1000 edge_10_4_0_0 <= 0
 inactive_no_flow_10_6_0_0: flow_10_6_0_0 - 1000 edge_10_6_0_0 <= 0
 inactive_no_flow_10_10_0_0: flow_10_10_0_0 - 1000 edge_10_10_0_0 <= 0
 inactive_no_flow_10_11_0_0: flow_10_11_0_0 - 1000 edge_10_11_0_0 <= 0
 inactive_no_flow_10_12_0_0: flow_10_12_0_0 - 1000 edge_10_12_0_0 <= 0
 inactive_no_flow_10_13_0_0: flow_10_13_0_0 - 1000 edge_10_13_0_0 <= 0
 inactive_no_flow_10_14_0_0: flow_10_14_0_0 - 1000 edge_10_14_0_0 <= 0
 inactive_no_flow_10_15_0_0: flow_10_15_0_0 - 1000 edge_10_15_0_0 <= 0
 inactive_no_flow_10_17_0_0: flow_10_17_0_0 - 1000 edge_10_17_0_0 <= 0
 inactive_no_flow_10_18_0_0: flow_10_18_0_0 - 1000 edge_10_18_0_0 <= 0
 inactive_no_flow_10_20_0_0: flow_10_20_0_0 - 1000 edge_10_20_0_0 <= 0
 inactive_no_flow_10_21_0_0: flow_10_21_0_0 - 1000 edge_10_21_0_0 <= 0
 inactive_no_flow_10_22_0_0: flow_10_22_0_0 - 1000 edge_10_22_0_0 <= 0
 inactive_no_flow_11_10_0_0: flow_11_10_0_0 - 1000 edge_11_10_0_0 <= 0
 inactive_no_flow_11_11_0_0: flow_11_11_0_0 - 1000 edge_11_11_0_0 <= 0
 inactive_no_flow_11_12_0_0: flow_11_12_0_0 - 1000 edge_11_12_0_0 <= 0
 inactive_no_flow_11_13_0_0: flow_11_13_0_0 - 1000 edge_11_13_0_0 <= 0
 inactive_no_flow_11_14_0_0: flow_11_14_0_0 - 1000 edge_11_14_0_0 <= 0
 inactive_no_flow_11_18_0_0: flow_11_18_0_0 - 1000 edge_11_18_0_0 <= 0
 inactive_no_flow_12_1_0_0: flow_12_1_0_0 - 1000 edge_12_1_0_0 <= 0
 inactive_no_flow_12_3_0_0: flow_12_3_0_0 - 1000 edge_12_3_0_0 <= 0
 inactive_no_flow_12_6_0_0: flow_12_6_0_0 - 1000 edge_12_6_0_0 <= 0
 inactive_no_flow_12_10_0_0: flow_12_10_0_0 - 1000 edge_12_10_0_0 <= 0
 inactive_no_flow_12_11_0_0: flow_12_11_0_0 - 1000 edge_12_11_0_0 <= 0
 inactive_no_flow_12_13_0_0: flow_12_13_0_0 - 1000 edge_12_13_0_0 <= 0
 inactive_no_flow_12_14_0_0: flow_12_14_0_0 - 1000 edge_12_14_0_0 <= 0
 inactive_no_flow_12_15_0_0: flow_12_15_0_0 - 1000 edge_12_15_0_0 <= 0
 inactive_no_flow_12_17_0_0: flow_12_17_0_0 - 1000 edge_12_17_0_0 <= 0
 inactive_no_flow_12_20_0_0: flow_12_20_0_0 - 1000 edge_12_20_0_0 <= 0
 inactive_no_flow_12_21_0_0: flow_12_21_0_0 - 1000 edge_12_21_0_0 <= 0
 inactive_no_flow_12_22_0_0: flow_12_22_0_0 - 1000 edge_12_22_0_0 <= 0
 inactive_no_flow_13_12_0_0: flow_13_12_0_0 - 1000 edge_13_12_0_0 <= 0
 inactive_no_flow_14_13_0_0: flow_14_13_0_0 - 1000 edge_14_13_0_0 <= 0
 inactive_no_flow_14_15_0_0: flow_14_15_0_0 - 1000 edge_14_15_0_0 <= 0
 inactive_no_flow_14_17_0_0: flow_14_17_0_0 - 1000 edge_14_17_0_0 <= 0
 inactive_no_flow_14_18_0_0: flow_14_18_0_0 - 1000 edge_14_18_0_0 <= 0
 inactive_no_flow_14_20_0_0: flow_14_20_0_0 - 1000 edge_14_20_0_0 <= 0
 inactive_no_flow_14_21_0_0: flow_14_21_0_0 - 1000 edge_14_21_0_0 <= 0
 inactive_no_flow_14_22_0_0: flow_14_22_0_0 - 1000 edge_14_22_0_0 <= 0
 inactive_no_flow_15_1_0_0: flow_15_1_0_0 - 1000 edge_15_1_0_0 <= 0
 inactive_no_flow_15_3_0_0: flow_15_3_0_0 - 1000 edge_15_3_0_0 <= 0
 inactive_no_flow_15_4_0_0: flow_15_4_0_0 - 1000 edge_15_4_0_0 <= 0
 inactive_no_flow_15_6_0_0: flow_15_6_0_0 - 1000 edge_15_6_0_0 <= 0
 inactive_no_flow_15_10_0_0: flow_15_10_0_0 - 1000 edge_15_10_0_0 <= 0
 inactive_no_flow_15_11_0_0: flow_15_11_0_0 - 1000 edge_15_11_0_0 <= 0
 inactive_no_flow_15_12_0_0: flow_15_12_0_0 - 1000 edge_15_12_0_0 <= 0
 inactive_no_flow_15_13_0_0: flow_15_13_0_0 - 1000 edge_15_13_0_0 <= 0
 inactive_no_flow_15_14_0_0: flow_15_14_0_0 - 1000 edge_15_14_0_0 <= 0
 inactive_no_flow_15_15_0_0: flow_15_15_0_0 - 1000 edge_15_15_0_0 <= 0
 inactive_no_flow_15_16_0_0: flow_15_16_0_0 - 1000 edge_15_16_0_0 <= 0
 inactive_no_flow_15_17_0_0: flow_15_17_0_0 - 1000 edge_15_17_0_0 <= 0
 inactive_no_flow_15_18_0_0: flow_15_18_0_0 - 1000 edge_15_18_0_0 <= 0
 inactive_no_flow_15_20_0_0: flow_15_20_0_0 - 1000 edge_15_20_0_0 <= 0
 inactive_no_flow_15_21_0_0: flow_15_21_0_0 - 1000 edge_15_21_0_0 <= 0
 inactive_no_flow_15_22_0_0: flow_15_22_0_0 - 1000 edge_15_22_0_0 <= 0
 inactive_no_flow_16_15_0_0: flow_16_15_0_0 - 1000 edge_16_15_0_0 <= 0
 inactive_no_flow_16_18_0_0: flow_16_18_0_0 - 1000 edge_16_18_0_0 <= 0
 inactive_no_flow_17_1_0_0: flow_17_1_0_0 - 1000 edge_17_1_0_0 <= 0
 inactive_no_flow_17_3_0_0: flow_17_3_0_0 - 1000 edge_17_3_0_0 <= 0
 inactive_no_flow_17_4_0_0: flow_17_4_0_0 - 1000 edge_17_4_0_0 <= 0
 inactive_no_flow_17_6_0_0: flow_17_6_0_0 - 1000 edge_17_6_0_0 <= 0
 inactive_no_flow_17_10_0_0: flow_17_10_0_0 - 1000 edge_17_10_0_0 <= 0
 inactive_no_flow_17_11_0_0: flow_17_11_0_0 - 1000 edge_17_11_0_0 <= 0
 inactive_no_flow_17_12_0_0: flow_17_12_0_0 - 1000 edge_17_12_0_0 <= 0
 inactive_no_flow_17_13_0_0: flow_17_13_0_0 - 1000 edge_17_13_0_0 <= 0
 inactive_no_flow_17_14_0_0: flow_17_14_0_0 - 1000 edge_17_14_0_0 <= 0
 inactive_no_flow_17_15_0_0: flow_17_15_0_0 - 1000 edge_17_15_0_0 <= 0
 inactive_no_flow_17_16_0_0: flow_17_16_0_0 - 1000 edge_17_16_0_0 <= 0
 inactive_no_flow_17_18_0_0: flow_17_18_0_0 - 1000 edge_17_18_0_0 <= 0
 inactive_no_flow_17_20_0_0: flow_17_20_0_0 - 1000 edge_17_20_0_0 <= 0
 inactive_no_flow_17_21_0_0: flow_17_21_0_0 - 1000 edge_17_21_0_0 <= 0
 inactive_no_flow_17_22_0_0: flow_17_22_0_0 - 1000 edge_17_22_0_0 <= 0
 inactive_no_flow_18_20_0_0: flow_18_20_0_0 - 1000 edge_18_20_0_0 <= 0
 inactive_no_flow_18_21_0_0: flow_18_21_0_0 - 1000 edge_18_21_0_0 <= 0
 inactive_no_flow_20_15_0_0: flow_20_15_0_0 - 1000 edge_20_15_0_0 <= 0
 inactive_no_flow_20_17_0_0: flow_20_17_0_0 - 1000 edge_20_17_0_0 <= 0
 inactive_no_flow_20_18_0_0: flow_20_18_0_0 - 1000 edge_20_18_0_0 <= 0
 inactive_no_flow_20_21_0_0: flow_20_21_0_0 - 1000 edge_20_21_0_0 <= 0
 inactive_no_flow_20_22_0_0: flow_20_22_0_0 - 1000 edge_20_22_0_0 <= 0
 inactive_no_flow_21_14_0_0: flow_21_14_0_0 - 1000 edge_21_14_0_0 <= 0
 inactive_no_flow_21_15_0_0: flow_21_15_0_0 - 1000 edge_21_15_0_0 <= 0
 inactive_no_flow_21_17_0_0: flow_21_17_0_0 - 1000 edge_21_17_0_0 <= 0
 inactive_no_flow_21_18_0_0: flow_21_18_0_0 - 1000 edge_21_18_0_0 <= 0
 inactive_no_flow_21_20_0_0: flow_21_20_0_0 - 1000 edge_21_20_0_0 <= 0
 inactive_no_flow_21_21_0_0: flow_21_21_0_0 - 1000 edge_21_21_0_0 <= 0
 inactive_no_flow_22_1_0_0: flow_22_1_0_0 - 1000 edge_22_1_0_0 <= 0
 inactive_no_flow_22_3_0_0: flow_22_3_0_0 - 1000 edge_22_3_0_0 <= 0
 inactive_no_flow_22_4_0_0: flow_22_4_0_0 - 1000 edge_22_4_0_0 <= 0
 inactive_no_flow_22_6_0_0: flow_22_6_0_0 - 1000 edge_22_6_0_0 <= 0
 inactive_no_flow_22_10_0_0: flow_22_10_0_0 - 1000 edge_22_10_0_0 <= 0
 inactive_no_flow_22_11_0_0: flow_22_11_0_0 - 1000 edge_22_11_0_0 <= 0
 inactive_no_flow_22_12_0_0: flow_22_12_0_0 - 1000 edge_22_12_0_0 <= 0
 inactive_no_flow_22_13_0_0: flow_22_13_0_0 - 1000 edge_22_13_0_0 <= 0
 inactive_no_flow_22_14_0_0: flow_22_14_0_0 - 1000 edge_22_14_0_0 <= 0
 inactive_no_flow_22_15_0_0: flow_22_15_0_0 - 1000 edge_22_15_0_0 <= 0
 inactive_no_flow_22_17_0_0: flow_22_17_0_0 - 1000 edge_22_17_0_0 <= 0
 inactive_no_flow_22_18_0_0: flow_22_18_0_0 - 1000 edge_22_18_0_0 <= 0
 inactive_no_flow_22_20_0_0: flow_22_20_0_0 - 1000 edge_22_20_0_0 <= 0
 inactive_no_flow_22_21_0_0: flow_22_21_0_0 - 1000 edge_22_21_0_0 <= 0
Bounds
Binaries
 edge_0_1_0_0 edge_0_3_0_0 edge_0_4_0_0 edge_0_6_0_0 edge_0_10_0_0
 edge_0_15_0_0 edge_0_17_0_0 edge_0_22_0_0 edge_1_3_0_0 edge_1_4_0_0
 edge_1_10_0_0 edge_3_1_0_0 edge_3_4_0_0 edge_3_6_0_0 edge_3_10_0_0
 edge_3_12_0_0 edge_3_13_0_0 edge_3_15_0_0 edge_3_17_0_0 edge_3_21_0_0
 edge_3_22_0_0 edge_4_1_0_0 edge_4_3_0_0 edge_4_6_0_0 edge_4_10_0_0
 edge_4_12_0_0 edge_4_15_0_0 edge_6_1_0_0 edge_6_3_0_0 edge_6_4_0_0
 edge_6_10_0_0 edge_6_12_0_0 edge_6_13_0_0 edge_6_15_0_0 edge_6_22_0_0
 edge_10_1_0_0 edge_10_3_0_0 edge_10_4_0_0 edge_10_6_0_0 edge_10_10_0_0
 edge_10_11_0_0 edge_10_12_0_0 edge_10_13_0_0 edge_10_14_0_0 edge_10_15_0_0
 edge_10_17_0_0 edge_10_18_0_0 edge_10_20_0_0 edge_10_21_0_0 edge_10_22_0_0
 edge_11_10_0_0 edge_11_11_0_0 edge_11_12_0_0 edge_11_13_0_0 edge_11_14_0_0
 edge_11_18_0_0 edge_12_1_0_0 edge_12_3_0_0 edge_12_6_0_0 edge_12_10_0_0
 edge_12_11_0_0 edge_12_13_0_0 edge_12_14_0_0 edge_12_15_0_0 edge_12_17_0_0
 edge_12_20_0_0 edge_12_21_0_0 edge_12_22_0_0 edge_13_12_0_0 edge_14_13_0_0
 edge_14_15_0_0 edge_14_17_0_0 edge_14_18_0_0 edge_14_20_0_0 edge_14_21_0_0
 edge_14_22_0_0 edge_15_1_0_0 edge_15_3_0_0 edge_15_4_0_0 edge_15_6_0_0
 edge_15_10_0_0 edge_15_11_0_0 edge_15_12_0_0 edge_15_13_0_0 edge_15_14_0_0
 edge_15_15_0_0 edge_15_16_0_0 edge_15_17_0_0 edge_15_18_0_0 edge_15_20_0_0
 edge_15_21_0_0 edge_15_22_0_0 edge_16_15_0_0 edge_16_18_0_0 edge_17_1_0_0
 edge_17_3_0_0 edge_17_4_0_0 edge_17_6_0_0 edge_17_10_0_0 edge_17_11_0_0
 edge_17_12_0_0 edge_17_13_0_0 edge_17_14_0_0 edge_17_15_0_0 edge_17_16_0_0
 edge_17_18_0_0 edge_17_20_0_0 edge_17_21_0_0 edge_17_22_0_0 edge_18_20_0_0
 edge_18_21_0_0 edge_20_15_0_0 edge_20_17_0_0 edge_20_18_0_0 edge_20_21_0_0
 edge_20_22_0_0 edge_21_14_0_0 edge_21_15_0_0 edge_21_17_0_0 edge_21_18_0_0
 edge_21_20_0_0 edge_21_21_0_0 edge_22_1_0_0 edge_22_3_0_0 edge_22_4_0_0
 edge_22_6_0_0 edge_22_10_0_0 edge_22_11_0_0 edge_22_12_0_0 edge_22_13_0_0
 edge_22_14_0_0 edge_22_15_0_0 edge_22_17_0_0 edge_22_18_0_0 edge_22_20_0_0
 edge_22_21_0_0
End
